DIMENSION: 280
1
2
280
3
279
278
248
249
243
242
237
236
235
234
233
232
231
238
239
240
241
244
245
246
247
250
251
230
229
228
227
226
225
224
223
222
221
220
219
218
217
216
215
214
213
212
211
210
207
208
209
252
253
254
255
256
257
258
259
260
261
262
263
264
265
266
267
268
269
270
134
135
136
137
138
139
140
141
142
143
144
145
146
147
148
149
150
178
179
180
181
176
177
151
152
156
153
155
154
129
130
131
132
133
17
18
19
20
21
128
127
126
33
34
35
36
37
38
39
40
41
42
43
60
61
118
117
115
116
86
85
84
83
82
81
80
79
78
77
76
75
74
73
72
71
70
67
66
65
64
63
62
59
58
57
44
45
46
47
48
49
50
51
52
53
54
55
56
68
69
112
88
87
113
114
111
110
108
109
89
90
91
92
97
96
95
94
93
98
99
100
101
102
103
104
105
106
107
173
174
172
171
170
169
168
167
166
165
164
163
162
161
175
160
159
158
157
119
120
121
122
123
124
125
30
31
32
29
28
27
26
22
25
23
24
15
14
13
12
11
10
9
8
7
6
5
4
277
276
275
274
273
272
271
16
206
205
204
203
202
200
199
198
197
194
195
196
201
193
192
191
190
189
188
186
187
185
184
183
